certificates/rado_a6_c128_N22.cnf
c Rad2 upper bound instance: x1 + 6*x2 - x3 = 128, interval [1,22]
p cnf 22 124
1 5 22 0
-1 -5 -22 0
2 6 22 0
-2 -6 -22 0
1 3 21 0
-1 -3 -21 0
3 7 22 0
-3 -7 -22 0
2 4 21 0
-2 -4 -21 0
4 8 22 0
-4 -8 -22 0
3 5 21 0
-3 -5 -21 0
5 9 22 0
-5 -9 -22 0
4 6 21 0
-4 -6 -21 0
6 10 22 0
-6 -10 -22 0
5 7 21 0
-5 -7 -21 0
7 11 22 0
-7 -11 -22 0
6 8 21 0
-6 -8 -21 0
8 12 22 0
-8 -12 -22 0
1 9 20 0
-1 -9 -20 0
7 9 21 0
-7 -9 -21 0
9 13 22 0
-9 -13 -22 0
2 10 20 0
-2 -10 -20 0
8 10 21 0
-8 -10 -21 0
10 14 22 0
-10 -14 -22 0
3 11 20 0
-3 -11 -20 0
9 11 21 0
-9 -11 -21 0
11 15 22 0
-11 -15 -22 0
4 12 20 0
-4 -12 -20 0
10 12 21 0
-10 -12 -21 0
12 16 22 0
-12 -16 -22 0
5 13 20 0
-5 -13 -20 0
11 13 21 0
-11 -13 -21 0
13 17 22 0
-13 -17 -22 0
6 14 20 0
-6 -14 -20 0
12 14 21 0
-12 -14 -21 0
14 18 22 0
-14 -18 -22 0
1 15 19 0
-1 -15 -19 0
7 15 20 0
-7 -15 -20 0
13 15 21 0
-13 -15 -21 0
15 19 22 0
-15 -19 -22 0
2 16 19 0
-2 -16 -19 0
8 16 20 0
-8 -16 -20 0
14 16 21 0
-14 -16 -21 0
16 20 22 0
-16 -20 -22 0
3 17 19 0
-3 -17 -19 0
9 17 20 0
-9 -17 -20 0
15 17 21 0
-15 -17 -21 0
17 21 22 0
-17 -21 -22 0
4 18 19 0
-4 -18 -19 0
10 18 20 0
-10 -18 -20 0
16 18 21 0
-16 -18 -21 0
18 22 0
-18 -22 0
5 19 0
-5 -19 0
11 19 20 0
-11 -19 -20 0
17 19 21 0
-17 -19 -21 0
6 19 20 0
-6 -19 -20 0
12 20 0
-12 -20 0
18 20 21 0
-18 -20 -21 0
1 18 21 0
-1 -18 -21 0
7 19 21 0
-7 -19 -21 0
13 20 21 0
-13 -20 -21 0
19 21 0
-19 -21 0
2 18 22 0
-2 -18 -22 0
8 19 22 0
-8 -19 -22 0
14 20 22 0
-14 -20 -22 0
20 21 22 0
-20 -21 -22 0
