certificates/rado_a6_c128_N22.drat
-21 -22 0
-22 0
18 0
21 0
-19 0
-1 0
-16 0
-20 0
5 0
15 0
8 0
12 0
2 0
0
